\* The Army Diet Problem - basic - 2 menu options only *\
Minimize
Total_Cost_of_Menu_Options___Basic_Run: 0.27 Frankfurter,_Beef
 + 0.84 Roasted_Chicken
Subject To
Fat_Requirement: 12.8 Frankfurter,_Beef + 10.8 Roasted_Chicken >= 78
Maximum_Calorie_Requirement: 141.8 Frankfurter,_Beef + 277.4 Roasted_Chicken
 <= 2500
Minimum_Calorie_Requirement: 141.8 Frankfurter,_Beef + 277.4 Roasted_Chicken
 >= 2000
Protein_Requirements: 5.4 Frankfurter,_Beef + 42.2 Roasted_Chicken >= 50
Bounds
0 <= Frankfurter,_Beef
0 <= Roasted_Chicken
Generals
Frankfurter,_Beef
Roasted_Chicken
End
